(declare-fun args_2_8 () (_ BitVec 8))
(declare-fun strlen_89_64 () (_ BitVec 64))
(assert (and (= (ite (= #x00 args_2_8) #x07fffffffffeffd4 #x07fffffffffeffd5)
        (bvadd #x07fffffffffeffd4 strlen_89_64))
     (not (= #x2d args_2_8))))
(maximize strlen_89_64)
(check-sat)